1556
2115
366
1050
165
792
1884
2234
2118
2208
1594
93
172
986
636
94
2286
1144
1863
1874
1372
1395
174
258
1692
2217
1057
1244
803
840
297
1785
2029
92
1172
481
2142
1529
1489
121
2201
1526
1825
853
679
2158
1737
151
2099
594
